
Welcome to IBM(R) ILOG(R) CPLEX(R) Interactive Optimizer 22.1.1.0
  with Simplex, Mixed Integer & Barrier Optimizers
5725-A06 5725-A29 5724-Y48 5724-Y49 5724-Y54 5724-Y55 5655-Y21
Copyright IBM Corp. 1988, 2022.  All Rights Reserved.

Type 'help' for a list of available commands.
Type 'help' followed by a command name for more
information on commands.

CPLEX> Problem '/tmp/2cf3789499db4bbdaee82bdae8aaea19-pulp.lp' read.
Read time = 0.00 sec. (0.03 ticks)
CPLEX> New value for time limit in seconds: 900
CPLEX> Version identifier: 22.1.1.0 | 2022-11-28 | 9160aff4d
CPXPARAM_TimeLimit                               900
Tried aggregator 2 times.
MIP Presolve eliminated 307 rows and 77 columns.
MIP Presolve modified 183 coefficients.
Aggregator did 7 substitutions.
Reduced MIP has 43 rows, 24 columns, and 101 nonzeros.
Reduced MIP has 24 binaries, 0 generals, 0 SOSs, and 0 indicators.
Presolve time = 0.00 sec. (0.50 ticks)
Found incumbent of value 3.606000 after 0.00 sec. (0.55 ticks)
Probing fixed 5 vars, tightened 0 bounds.
Probing time = 0.00 sec. (0.02 ticks)
Tried aggregator 2 times.
MIP Presolve eliminated 19 rows and 5 columns.
Aggregator did 1 substitutions.
Reduced MIP has 23 rows, 18 columns, and 61 nonzeros.
Reduced MIP has 18 binaries, 0 generals, 0 SOSs, and 0 indicators.
Presolve time = 0.00 sec. (0.07 ticks)
Probing time = 0.00 sec. (0.01 ticks)
Tried aggregator 1 time.
Detecting symmetries...
Reduced MIP has 23 rows, 18 columns, and 61 nonzeros.
Reduced MIP has 18 binaries, 0 generals, 0 SOSs, and 0 indicators.
Presolve time = 0.00 sec. (0.05 ticks)
Probing time = 0.00 sec. (0.01 ticks)
Clique table members: 19.
MIP emphasis: balance optimality and feasibility.
MIP search method: dynamic search.
Parallel mode: deterministic, using up to 32 threads.
Root relaxation solution time = 0.00 sec. (0.04 ticks)

        Nodes                                         Cuts/
   Node  Left     Objective  IInf  Best Integer    Best Bound    ItCnt     Gap

*     0+    0                            3.6060        0.0050            99.86%
*     0+    0                            1.2050        0.0050            99.59%
      0     0        cutoff              1.2050        1.2050       13    0.00%
      0     0        cutoff              1.2050        1.2050       13    0.00%
Elapsed time = 0.00 sec. (0.82 ticks, tree = 0.01 MB, solutions = 2)

Root node processing (before b&c):
  Real time             =    0.00 sec. (0.83 ticks)
Parallel b&c, 32 threads:
  Real time             =    0.00 sec. (0.00 ticks)
  Sync time (average)   =    0.00 sec.
  Wait time (average)   =    0.00 sec.
                          ------------
Total (root+branch&cut) =    0.00 sec. (0.83 ticks)

Solution pool: 2 solutions saved.

MIP - Integer optimal solution:  Objective =  1.2050000000e+00
Solution time =    0.01 sec.  Iterations = 13  Nodes = 0
Deterministic time = 0.83 ticks  (141.00 ticks/sec)

CPLEX> MILP problem relaxed to LP with fixed integer variables using
incumbent solution.
CPLEX> Version identifier: 22.1.1.0 | 2022-11-28 | 9160aff4d
CPXPARAM_TimeLimit                               900
Tried aggregator 1 time.
LP Presolve eliminated 357 rows and 108 columns.
All rows and columns eliminated.
Presolve time = 0.00 sec. (0.13 ticks)

Dual simplex - Optimal:  Objective =  1.2050000000e+00
Solution time =    0.00 sec.  Iterations = 0 (0)
Deterministic time = 0.25 ticks  (247.00 ticks/sec)

CPLEX> Solution written to file '/tmp/2cf3789499db4bbdaee82bdae8aaea19-pulp.sol'.
CPLEX> Root classes: ['7']
Status: Optimal
Solved x values:
['0.0', '1.2', '2.2', '4.2', '5.2', '7.3', '26.2', '27.2']
